53
15 28 201
28 49 191
49 19 35
19 29 189
29 52 480
52 1 187
1 6 45
6 41 76
41 16 408
16 20 253
20 22 187
22 21 175
21 30 104
30 17 80
17 2 135
2 40 247
40 7 64
7 8 183
8 9 83
9 18 291
18 44 75
44 31 151
31 48 50
48 35 81
35 34 15
34 33 21
33 38 59
38 39 43
39 36 41
36 37 43
37 4 51
4 14 25
14 42 242
42 32 365
32 50 475
50 10 285
10 51 399
51 13 319
13 12 206
12 46 324
46 25 186
25 26 126
26 27 110
27 11 182
11 24 245
24 3 109
3 5 70
5 23 57
23 47 16
47 45 125
45 43 131
43 15 132
43 15 0

